# Objective value = 11932.1
I_0_0 2155
I_0_1 3.0160000000000005e+03
I_0_2 2629
I_0_3 2.3710000000000009e+03
I_0_4 2.7289999999999991e+03
I_0_5 2.3230000000000009e+03
I_0_6 3.1839999999999995e+03
I_1_0 10
I_1_1 -2.2204460492503131e-15
I_1_2 1.0000000000000002e+01
I_1_3 10
I_1_4 -1.1102230246251565e-15
I_1_5 9.9999999999999964e+00
I_1_6 3.6082248300317588e-15
I_2_0 36
I_2_1 0
I_2_2 36
I_2_3 0
I_2_4 36
I_2_5 3.5999999999999950e+01
I_2_6 4.39648317751562e-14
I_3_0 30
I_3_1 2.6645352591003757e-14
I_3_2 2.9999999999999961e+01
I_3_3 2.9999999999999908e+01
I_3_4 9.2426066800044282e-14
I_3_5 30
I_3_6 0
I_4_0 142
I_4_1 7.1000000000000028e+01
I_4_2 3.4106051316484809e-13
I_4_3 1.4199999999999989e+02
I_4_4 1.4199999999999977e+02
I_4_5 7.0999999999999531e+01
I_4_6 1.3500311979441904e-13
I_5_0 22
I_5_1 1.0999999999999998e+01
I_5_2 4.2632564145606011e-14
I_5_3 22
I_5_4 11
I_5_5 22
I_5_6 1.1000000000000002e+01
I_6_0 46
I_6_1 -4.0856207306205761e-14
I_6_2 4.6000000000000050e+01
I_6_3 4.5999999999999758e+01
I_6_4 2.4003021792395884e-13
I_6_5 4.5999999999999808e+01
I_6_6 1.9406698470447736e-13
I_7_0 126
I_7_1 63
I_7_2 2.2737367544323206e-13
I_7_3 1.2599999999999993e+02
I_7_4 6.2999999999999922e+01
I_7_5 1.2600000000000001e+02
I_7_6 6.2999999999999957e+01
I_8_0 194
I_8_1 9.7000000000000128e+01
I_8_2 1.9399999999999991e+02
I_8_3 9.6999999999999886e+01
I_8_4 194
I_8_5 97
I_8_6 0
I_9_0 68
I_9_1 34
I_9_2 0
I_9_3 68
I_9_4 34
I_9_5 6.7999999999999957e+01
I_9_6 3.3999999999999957e+01
I_10_0 92
I_10_1 -5.10702591327572e-15
I_10_2 92
I_10_3 9.2000000000000014e+01
I_10_4 -1.0214051826551440e-13
I_10_5 9.2000000000000014e+01
I_10_6 -1.0214051826551440e-13
I_11_0 83
I_11_1 0
I_11_2 83
I_11_3 0
I_11_4 83
I_11_5 83
I_11_6 5.98965321785272e-14
I_12_0 76
I_12_1 0
I_12_2 76
I_12_3 7.5999999999999858e+01
I_12_4 1.0969003483296547e-13
I_12_5 7.5999999999999858e+01
I_12_6 1.0969003483296547e-13
I_13_0 55
I_13_1 0
I_13_2 55
I_13_3 55
I_13_4 0
I_13_5 55
I_13_6 0
I_14_0 116
I_14_1 58
I_14_2 1.7053025658242404e-13
I_14_3 116
I_14_4 58
I_14_5 1.1599999999999976e+02
I_14_6 5.7999999999999950e+01
I_15_0 198
I_15_1 9.9000000000000085e+01
I_15_2 1.9800000000000034e+02
I_15_3 1.9799999999999989e+02
I_15_4 9.9000000000000085e+01
I_15_5 1.9800000000000006e+02
I_15_6 9.9000000000000256e+01
q_1_0 -2.2204460492503131e-15
q_1_1 2.0000000000000004e+01
q_1_2 9.9999999999999982e+00
q_1_3 -1.1102230246251565e-15
q_1_4 20
q_1_5 7.16093850883226e-15
q_2_0 0
q_2_1 72
q_2_2 0
q_2_3 72
q_2_4 3.5999999999999950e+01
q_2_5 9.3702823278363212e-14
q_3_0 2.6645352591003757e-14
q_3_1 5.9999999999999929e+01
q_3_2 2.9999999999999947e+01
q_3_3 1.8479662244885731e-13
q_3_4 5.9999999999999908e+01
q_3_5 0
q_4_0 3.1530333899354446e-14
q_4_1 3.4106051316484809e-13
q_4_2 2.1299999999999955e+02
q_4_3 7.0999999999999943e+01
q_4_4 -2.9842794901924208e-13
q_4_5 6.8212102632969618e-13
q_5_0 -2.4424906541753444e-15
q_5_1 4.9737991503207013e-14
q_5_2 3.2999999999999957e+01
q_5_3 0
q_5_4 22
q_5_5 0
q_6_0 -4.0856207306205761e-14
q_6_1 9.2000000000000085e+01
q_6_2 4.5999999999999709e+01
q_6_3 4.8161474808239291e-13
q_6_4 9.1999999999999574e+01
q_6_5 3.8591352335970441e-13
q_7_0 0
q_7_1 1.9895196601282805e-13
q_7_2 1.8899999999999972e+02
q_7_3 0
q_7_4 1.2600000000000003e+02
q_7_5 0
q_8_0 1.2922996006636822e-13
q_8_1 1.9399999999999983e+02
q_8_2 -2.8421709430404007e-14
q_8_3 1.9400000000000006e+02
q_8_4 0
q_8_5 0
q_9_0 0
q_9_1 0
q_9_2 102
q_9_3 0
q_9_4 6.7999999999999957e+01
q_9_5 0
q_10_0 -5.10702591327572e-15
q_10_1 184
q_10_2 9.2000000000000014e+01
q_10_3 -1.1635137298071641e-13
q_10_4 1.8400000000000011e+02
q_10_5 -1.1635137298071641e-13
q_11_0 0
q_11_1 166
q_11_2 0
q_11_3 166
q_11_4 83
q_11_5 5.98965321785272e-14
q_12_0 0
q_12_1 152
q_12_2 7.5999999999999858e+01
q_12_3 2.5179858198498550e-13
q_12_4 1.5199999999999974e+02
q_12_5 2.5179858198498550e-13
q_13_0 0
q_13_1 110
q_13_2 55
q_13_3 0
q_13_4 110
q_13_5 0
q_14_0 0
q_14_1 1.5631940186722204e-13
q_14_2 1.7399999999999983e+02
q_14_3 0
q_14_4 1.1599999999999970e+02
q_14_5 2.1316282072803006e-13
q_15_0 8.79296635503124e-14
q_15_1 1.9800000000000011e+02
q_15_2 9.8999999999999545e+01
q_15_3 2.3447910280083306e-13
q_15_4 198
q_15_5 1.7053025658242404e-13
y_0_0 8.8817841970012523e-16
y_0_1 1
y_0_2 1
y_0_3 1
y_0_4 1
y_0_5 1.2212453270876722e-15
y_1_0 -2.2204460492503131e-16
y_1_1 1.0000000000000002e+00
y_1_2 1
y_1_3 -1.1102230246251565e-16
y_1_4 9.9999999999999956e-01
y_1_5 3.6082248300317588e-16
y_2_0 0
y_2_1 1
y_2_2 0
y_2_3 1
y_2_4 9.9999999999999867e-01
y_2_5 1.2212453270876722e-15
y_3_0 8.8817841970012523e-16
y_3_1 9.9999999999999867e-01
y_3_2 9.9999999999999689e-01
y_3_3 3.0808688933348094e-15
y_3_4 1
y_3_5 0
y_4_0 4.4408920985006262e-16
y_4_1 1.3322676295501878e-15
y_4_2 9.9999999999999922e-01
y_4_3 9.9999999999999756e-01
y_4_4 2.3869795029440866e-15
y_4_5 0
y_5_0 -2.2204460492503131e-16
y_5_1 1.9428902930940239e-15
y_5_2 1
y_5_3 -4.1633363423443370e-16
y_5_4 1
y_5_5 0
y_6_0 -8.8817841970012523e-16
y_6_1 1.0000000000000011e+00
y_6_2 9.9999999999999467e-01
y_6_3 5.2180482157382357e-15
y_6_4 9.9999999999999578e-01
y_6_5 4.2188474935755949e-15
y_7_0 0
y_7_1 1.2212453270876722e-15
y_7_2 9.9999999999999911e-01
y_7_3 -8.40837747074457e-17
y_7_4 1.0000000000000002e+00
y_7_5 0
y_8_0 1.3322676295501878e-15
y_8_1 9.9999999999999822e-01
y_8_2 1.1102230246251565e-16
y_8_3 1
y_8_4 0
y_8_5 0
y_9_0 0
y_9_1 0
y_9_2 1
y_9_3 0
y_9_4 9.9999999999999944e-01
y_9_5 0
y_10_0 -5.5511151231257827e-17
y_10_1 1
y_10_2 1.0000000000000002e+00
y_10_3 -1.1102230246251565e-15
y_10_4 1.0000000000000002e+00
y_10_5 -1.1102230246251565e-15
y_11_0 0
y_11_1 1
y_11_2 0
y_11_3 1
y_11_4 1
y_11_5 7.2164496600635175e-16
y_12_0 0
y_12_1 1
y_12_2 9.9999999999999822e-01
y_12_3 1.4432899320127035e-15
y_12_4 9.9999999999999822e-01
y_12_5 1.4432899320127035e-15
y_13_0 0
y_13_1 1
y_13_2 1
y_13_3 0
y_13_4 1
y_13_5 0
y_14_0 0
y_14_1 1.9706458687096529e-15
y_14_2 1
y_14_3 0
y_14_4 9.9999999999999845e-01
y_14_5 1.5543122344752192e-15
y_15_0 8.8817841970012523e-16
y_15_1 1.0000000000000009e+00
y_15_2 9.9999999999999878e-01
y_15_3 1.1934897514720433e-15
y_15_4 1
y_15_5 1.3322676295501878e-15
x_0_1_0 0
x_0_1_1 0
x_0_1_2 0
x_0_1_3 0
x_0_1_4 0
x_0_1_5 0
x_0_2_0 0
x_0_2_1 0
x_0_2_2 0
x_0_2_3 1.2481838548427422e-15
x_0_2_4 9.9999999999999489e-01
x_0_2_5 0
x_0_3_0 0
x_0_3_1 0
x_0_3_2 0
x_0_3_3 0
x_0_3_4 0
x_0_3_5 0
x_0_4_0 0
x_0_4_1 -8.8817841970012523e-16
x_0_4_2 9.9999999999999845e-01
x_0_4_3 9.9999999999999689e-01
x_0_4_4 5.9396931817445875e-15
x_0_4_5 0
x_0_5_0 0
x_0_5_1 0
x_0_5_2 0
x_0_5_3 0
x_0_5_4 0
x_0_5_5 0
x_0_6_0 0
x_0_6_1 0
x_0_6_2 0
x_0_6_3 0
x_0_6_4 0
x_0_6_5 0
x_0_7_0 0
x_0_7_1 0
x_0_7_2 0
x_0_7_3 0
x_0_7_4 0
x_0_7_5 0
x_0_8_0 2.6645352591003757e-15
x_0_8_1 9.9999999999999956e-01
x_0_8_2 2.2204460492503131e-16
x_0_8_3 1.0000000000000027e+00
x_0_8_4 -2.9976021664879227e-15
x_0_8_5 2.4424906541753444e-15
x_0_9_0 0
x_0_9_1 0
x_0_9_2 0
x_0_9_3 0
x_0_9_4 0
x_0_9_5 0
x_0_10_0 0
x_0_10_1 1.0000000000000013e+00
x_0_10_2 1.0000000000000013e+00
x_0_10_3 0
x_0_10_4 0.999999999999994
x_0_10_5 0
x_0_11_0 0
x_0_11_1 0
x_0_11_2 0
x_0_11_3 0
x_0_11_4 0
x_0_11_5 0
x_0_12_0 0
x_0_12_1 0
x_0_12_2 0
x_0_12_3 0
x_0_12_4 0
x_0_12_5 0
x_0_13_0 0
x_0_13_1 0
x_0_13_2 0
x_0_13_3 0
x_0_13_4 0
x_0_13_5 0
x_0_14_0 0
x_0_14_1 0
x_0_14_2 0
x_0_14_3 0
x_0_14_4 0
x_0_14_5 0
x_0_15_0 0
x_0_15_1 0
x_0_15_2 0
x_0_15_3 0
x_0_15_4 0
x_0_15_5 0
x_1_2_0 -4.4408920985006262e-16
x_1_2_1 2.2204460492503131e-16
x_1_2_2 0
x_1_2_3 1.7494183116451805e-15
x_1_2_4 0
x_1_2_5 9.9920072216264089e-16
x_1_3_0 0
x_1_3_1 0.999999999999995
x_1_3_2 1.3322676295501878e-15
x_1_3_3 0
x_1_3_4 0
x_1_3_5 0
x_1_4_0 0
x_1_4_1 0
x_1_4_2 0
x_1_4_3 0
x_1_4_4 0
x_1_4_5 0
x_1_5_0 0
x_1_5_1 3.8857805861880479e-15
x_1_5_2 1
x_1_5_3 0
x_1_5_4 9.1511694745519519e-16
x_1_5_5 0
x_1_6_0 0
x_1_6_1 0
x_1_6_2 0
x_1_6_3 0
x_1_6_4 0
x_1_6_5 0
x_1_7_0 0
x_1_7_1 1.1102230246251565e-15
x_1_7_2 9.9999999999999911e-01
x_1_7_3 -8.40837747074457e-17
x_1_7_4 1
x_1_7_5 0
x_1_8_0 0
x_1_8_1 0
x_1_8_2 0
x_1_8_3 0
x_1_8_4 0
x_1_8_5 0
x_1_9_0 0
x_1_9_1 0
x_1_9_2 0
x_1_9_3 0
x_1_9_4 0
x_1_9_5 0
x_1_10_0 0
x_1_10_1 0
x_1_10_2 0
x_1_10_3 0
x_1_10_4 0
x_1_10_5 0
x_1_11_0 0
x_1_11_1 9.9999999999999967e-01
x_1_11_2 0
x_1_11_3 -1.6792123247455493e-15
x_1_11_4 9.9999999999999911e-01
x_1_11_5 -3.8857805861880479e-16
x_1_12_0 0
x_1_12_1 0
x_1_12_2 0
x_1_12_3 0
x_1_12_4 0
x_1_12_5 0
x_1_13_0 0
x_1_13_1 0
x_1_13_2 0
x_1_13_3 0
x_1_13_4 0
x_1_13_5 0
x_1_14_0 0
x_1_14_1 0
x_1_14_2 0
x_1_14_3 0
x_1_14_4 0
x_1_14_5 0
x_1_15_0 0
x_1_15_1 0
x_1_15_2 0
x_1_15_3 0
x_1_15_4 0
x_1_15_5 0
x_2_3_0 0
x_2_3_1 0
x_2_3_2 0
x_2_3_3 0
x_2_3_4 0
x_2_3_5 0
x_2_4_0 4.4408920985006262e-16
x_2_4_1 8.8817841970012523e-16
x_2_4_2 0
x_2_4_3 0
x_2_4_4 0
x_2_4_5 1.2212453270876722e-15
x_2_5_0 0
x_2_5_1 0
x_2_5_2 0
x_2_5_3 0
x_2_5_4 0
x_2_5_5 0
x_2_6_0 0
x_2_6_1 0
x_2_6_2 0
x_2_6_3 0
x_2_6_4 0
x_2_6_5 0
x_2_7_0 0
x_2_7_1 0
x_2_7_2 0
x_2_7_3 0
x_2_7_4 0
x_2_7_5 1.3322676295501878e-15
x_2_8_0 0
x_2_8_1 9.9999999999999734e-01
x_2_8_2 0
x_2_8_3 9.9999999999999711e-01
x_2_8_4 2.9976021664879227e-15
x_2_8_5 -2.4424906541753444e-15
x_2_9_0 0
x_2_9_1 0
x_2_9_2 0
x_2_9_3 0
x_2_9_4 0
x_2_9_5 0
x_2_10_0 0
x_2_10_1 0
x_2_10_2 0
x_2_10_3 0
x_2_10_4 0
x_2_10_5 0
x_2_11_0 0
x_2_11_1 1
x_2_11_2 0
x_2_11_3 1
x_2_11_4 1
x_2_11_5 1.3322676295501878e-15
x_2_12_0 0
x_2_12_1 0
x_2_12_2 0
x_2_12_3 0
x_2_12_4 0
x_2_12_5 0
x_2_13_0 0
x_2_13_1 0
x_2_13_2 0
x_2_13_3 0
x_2_13_4 0
x_2_13_5 0
x_2_14_0 0
x_2_14_1 0
x_2_14_2 0
x_2_14_3 0
x_2_14_4 0
x_2_14_5 0
x_2_15_0 0
x_2_15_1 0
x_2_15_2 0
x_2_15_3 0
x_2_15_4 0
x_2_15_5 0
x_3_4_0 0
x_3_4_1 0
x_3_4_2 0
x_3_4_3 0
x_3_4_4 0
x_3_4_5 0
x_3_5_0 1.7763568394002505e-15
x_3_5_1 0
x_3_5_2 -6.6613381477509392e-16
x_3_5_3 0
x_3_5_4 0
x_3_5_5 -1.1102230246251565e-16
x_3_6_0 0
x_3_6_1 0
x_3_6_2 9.9999999999999645e-01
x_3_6_3 3.7470027081099033e-15
x_3_6_4 9.9999999999999223e-01
x_3_6_5 0
x_3_7_0 -4.4408920985006262e-16
x_3_7_1 1.2212453270876722e-15
x_3_7_2 0
x_3_7_3 2.2482016248659420e-15
x_3_7_4 1.0000000000000047e+00
x_3_7_5 0
x_3_8_0 0
x_3_8_1 0
x_3_8_2 0
x_3_8_3 0
x_3_8_4 0
x_3_8_5 0
x_3_9_0 0
x_3_9_1 0
x_3_9_2 0
x_3_9_3 0
x_3_9_4 0
x_3_9_5 0
x_3_10_0 0
x_3_10_1 1.0547118733938987e-15
x_3_10_2 0
x_3_10_3 0
x_3_10_4 7.4940054162198066e-15
x_3_10_5 0
x_3_11_0 0
x_3_11_1 0
x_3_11_2 0
x_3_11_3 0
x_3_11_4 0
x_3_11_5 0
x_3_12_0 0
x_3_12_1 0
x_3_12_2 0
x_3_12_3 0
x_3_12_4 0
x_3_12_5 0
x_3_13_0 0
x_3_13_1 0
x_3_13_2 0
x_3_13_3 0
x_3_13_4 0
x_3_13_5 0
x_3_14_0 0
x_3_14_1 0
x_3_14_2 0
x_3_14_3 0
x_3_14_4 0
x_3_14_5 0
x_3_15_0 1.7763568394002505e-15
x_3_15_1 1
x_3_15_2 9.9999999999999434e-01
x_3_15_3 0
x_3_15_4 -3.6923086047392046e-15
x_3_15_5 2.2204460492503131e-16
x_4_5_0 0
x_4_5_1 0
x_4_5_2 0
x_4_5_3 0
x_4_5_4 0
x_4_5_5 0
x_4_6_0 0
x_4_6_1 0
x_4_6_2 0
x_4_6_3 0
x_4_6_4 0
x_4_6_5 0
x_4_7_0 4.4408920985006262e-16
x_4_7_1 0
x_4_7_2 9.9999999999999911e-01
x_4_7_3 -2.3045298239577590e-15
x_4_7_4 -3.9968028886505635e-15
x_4_7_5 -1.3322676295501878e-15
x_4_8_0 0
x_4_8_1 0
x_4_8_2 0
x_4_8_3 0
x_4_8_4 0
x_4_8_5 0
x_4_9_0 0
x_4_9_1 0
x_4_9_2 0
x_4_9_3 0
x_4_9_4 0
x_4_9_5 0
x_4_10_0 0
x_4_10_1 3.8857805861880479e-16
x_4_10_2 0
x_4_10_3 0
x_4_10_4 0
x_4_10_5 0
x_4_11_0 0
x_4_11_1 4.1633363423443370e-16
x_4_11_2 0
x_4_11_3 1.0000000000000018e+00
x_4_11_4 2.1649348980190553e-15
x_4_11_5 3.3306690738754696e-16
x_4_12_0 0
x_4_12_1 0
x_4_12_2 0
x_4_12_3 0
x_4_12_4 0
x_4_12_5 0
x_4_13_0 0
x_4_13_1 0
x_4_13_2 0
x_4_13_3 0
x_4_13_4 0
x_4_13_5 0
x_4_14_0 0
x_4_14_1 0
x_4_14_2 0
x_4_14_3 0
x_4_14_4 0
x_4_14_5 0
x_4_15_0 0
x_4_15_1 0
x_4_15_2 0
x_4_15_3 0
x_4_15_4 0
x_4_15_5 0
x_5_6_0 -1.7763568394002505e-15
x_5_6_1 0
x_5_6_2 0
x_5_6_3 -8.3266726846886741e-16
x_5_6_4 0
x_5_6_5 0
x_5_7_0 0
x_5_7_1 0
x_5_7_2 0
x_5_7_3 0
x_5_7_4 0
x_5_7_5 0
x_5_8_0 0
x_5_8_1 0
x_5_8_2 0
x_5_8_3 0
x_5_8_4 0
x_5_8_5 0
x_5_9_0 0
x_5_9_1 0
x_5_9_2 0
x_5_9_3 0
x_5_9_4 0
x_5_9_5 0
x_5_10_0 0
x_5_10_1 0
x_5_10_2 0
x_5_10_3 0
x_5_10_4 0
x_5_10_5 0
x_5_11_0 0
x_5_11_1 0
x_5_11_2 0
x_5_11_3 0
x_5_11_4 0
x_5_11_5 0
x_5_12_0 0
x_5_12_1 0
x_5_12_2 0
x_5_12_3 0
x_5_12_4 0
x_5_12_5 0
x_5_13_0 0
x_5_13_1 0
x_5_13_2 0
x_5_13_3 0
x_5_13_4 1.0000000000000016e+00
x_5_13_5 0
x_5_14_0 0
x_5_14_1 0
x_5_14_2 0
x_5_14_3 0
x_5_14_4 0
x_5_14_5 0
x_5_15_0 0
x_5_15_1 0
x_5_15_2 1.0000000000000002e+00
x_5_15_3 0
x_5_15_4 1
x_5_15_5 1.1102230246251565e-16
x_6_7_0 0
x_6_7_1 0
x_6_7_2 0
x_6_7_3 0
x_6_7_4 0
x_6_7_5 0
x_6_8_0 0
x_6_8_1 0
x_6_8_2 0
x_6_8_3 0
x_6_8_4 0
x_6_8_5 0
x_6_9_0 0
x_6_9_1 0
x_6_9_2 0
x_6_9_3 0
x_6_9_4 0
x_6_9_5 0
x_6_10_0 0
x_6_10_1 0
x_6_10_2 0
x_6_10_3 -1.7902346272080649e-15
x_6_10_4 0
x_6_10_5 0
x_6_11_0 0
x_6_11_1 0
x_6_11_2 0
x_6_11_3 0
x_6_11_4 0
x_6_11_5 0
x_6_12_0 0
x_6_12_1 0
x_6_12_2 0
x_6_12_3 0
x_6_12_4 0
x_6_12_5 0
x_6_13_0 0
x_6_13_1 1
x_6_13_2 9.9999999999999467e-01
x_6_13_3 0
x_6_13_4 -1.4163514042576335e-15
x_6_13_5 0
x_6_14_0 0
x_6_14_1 0
x_6_14_2 0
x_6_14_3 1.5404344466674047e-15
x_6_14_4 0
x_6_14_5 0
x_6_15_0 8.8817841970012523e-16
x_6_15_1 1.0000000000000018e+00
x_6_15_2 -1.3322676295501878e-15
x_6_15_3 2.4980018054066022e-15
x_6_15_4 1.0000000000000022e+00
x_6_15_5 2.2204460492503131e-15
x_7_8_0 0
x_7_8_1 0
x_7_8_2 0
x_7_8_3 0
x_7_8_4 0
x_7_8_5 0
x_7_9_0 0
x_7_9_1 0
x_7_9_2 0
x_7_9_3 0
x_7_9_4 0
x_7_9_5 0
x_7_10_0 0
x_7_10_1 0
x_7_10_2 0
x_7_10_3 0
x_7_10_4 0
x_7_10_5 0
x_7_11_0 0
x_7_11_1 0
x_7_11_2 0
x_7_11_3 0
x_7_11_4 0
x_7_11_5 0
x_7_12_0 0
x_7_12_1 0
x_7_12_2 0
x_7_12_3 0
x_7_12_4 0
x_7_12_5 0
x_7_13_0 0
x_7_13_1 0
x_7_13_2 0
x_7_13_3 0
x_7_13_4 0
x_7_13_5 0
x_7_14_0 0
x_7_14_1 0
x_7_14_2 0
x_7_14_3 0
x_7_14_4 0
x_7_14_5 0
x_7_15_0 0
x_7_15_1 0
x_7_15_2 0
x_7_15_3 0
x_7_15_4 0
x_7_15_5 0
x_8_9_0 0
x_8_9_1 0
x_8_9_2 0
x_8_9_3 0
x_8_9_4 0
x_8_9_5 0
x_8_10_0 0
x_8_10_1 0
x_8_10_2 0
x_8_10_3 0
x_8_10_4 0
x_8_10_5 0
x_8_11_0 0
x_8_11_1 0
x_8_11_2 0
x_8_11_3 0
x_8_11_4 0
x_8_11_5 0
x_8_12_0 0
x_8_12_1 0
x_8_12_2 0
x_8_12_3 0
x_8_12_4 0
x_8_12_5 0
x_8_13_0 0
x_8_13_1 0
x_8_13_2 0
x_8_13_3 0
x_8_13_4 0
x_8_13_5 0
x_8_14_0 0
x_8_14_1 0
x_8_14_2 0
x_8_14_3 0
x_8_14_4 0
x_8_14_5 0
x_8_15_0 0
x_8_15_1 0
x_8_15_2 0
x_8_15_3 0
x_8_15_4 0
x_8_15_5 0
x_9_10_0 0
x_9_10_1 0
x_9_10_2 0
x_9_10_3 0
x_9_10_4 0
x_9_10_5 0
x_9_11_0 0
x_9_11_1 0
x_9_11_2 0
x_9_11_3 0
x_9_11_4 0
x_9_11_5 0
x_9_12_0 0
x_9_12_1 -4.4408920985006262e-16
x_9_12_2 1
x_9_12_3 1.4432899320127035e-15
x_9_12_4 9.9999999999999711e-01
x_9_12_5 1.4432899320127035e-15
x_9_13_0 0
x_9_13_1 4.4408920985006262e-16
x_9_13_2 0
x_9_13_3 0
x_9_13_4 1.5543122344752192e-15
x_9_13_5 -2.6645352591003757e-15
x_9_14_0 0
x_9_14_1 0
x_9_14_2 1
x_9_14_3 -1.4432899320127035e-15
x_9_14_4 1
x_9_14_5 1.5543122344752192e-15
x_9_15_0 0
x_9_15_1 0
x_9_15_2 0
x_9_15_3 0
x_9_15_4 0
x_9_15_5 0
x_10_11_0 0
x_10_11_1 0
x_10_11_2 0
x_10_11_3 0
x_10_11_4 0
x_10_11_5 0
x_10_12_0 0
x_10_12_1 1
x_10_12_2 1.0000000000000002e+00
x_10_12_3 1.4432899320127035e-15
x_10_12_4 1
x_10_12_5 1.4432899320127035e-15
x_10_13_0 0
x_10_13_1 0
x_10_13_2 0
x_10_13_3 0
x_10_13_4 0
x_10_13_5 7.7715611723760958e-16
x_10_14_0 0
x_10_14_1 0
x_10_14_2 0
x_10_14_3 -5.4123372450476381e-16
x_10_14_4 0
x_10_14_5 0
x_10_15_0 0
x_10_15_1 0
x_10_15_2 0
x_10_15_3 0
x_10_15_4 0
x_10_15_5 0
x_11_12_0 0
x_11_12_1 0
x_11_12_2 0
x_11_12_3 0
x_11_12_4 0
x_11_12_5 0
x_11_13_0 0
x_11_13_1 0
x_11_13_2 0
x_11_13_3 0
x_11_13_4 0
x_11_13_5 0
x_11_14_0 0
x_11_14_1 0
x_11_14_2 0
x_11_14_3 0
x_11_14_4 0
x_11_14_5 0
x_11_15_0 0
x_11_15_1 0
x_11_15_2 0
x_11_15_3 0
x_11_15_4 0
x_11_15_5 0
x_12_13_0 0
x_12_13_1 9.9999999999999634e-01
x_12_13_2 -1.4432899320127035e-15
x_12_13_3 0
x_12_13_4 0
x_12_13_5 0
x_12_14_0 0
x_12_14_1 1.9706458687096529e-15
x_12_14_2 0
x_12_14_3 0
x_12_14_4 -1.7763568394002505e-15
x_12_14_5 0
x_12_15_0 0
x_12_15_1 0
x_12_15_2 0
x_12_15_3 0
x_12_15_4 0
x_12_15_5 0
x_13_14_0 0
x_13_14_1 1.9706458687096529e-15
x_13_14_2 1
x_13_14_3 0
x_13_14_4 9.9999999999999845e-01
x_13_14_5 1.5543122344752192e-15
x_13_15_0 0
x_13_15_1 0
x_13_15_2 4.6629367034256575e-15
x_13_15_3 0
x_13_15_4 0
x_13_15_5 0
x_14_15_0 0
x_14_15_1 0
x_14_15_2 0
x_14_15_3 0
x_14_15_4 0
x_14_15_5 0
